c This Formular was created for testing purposes
c
c    horn? no
c    forced? no
c    mixed sat? no
c    clause length = 3
c
p cnf
1	2	3
4	5	6
7	8	9
10	11	12
13	14	15
16	17	18
19	20	1
-4	15	2
-10	12	4
8	13	-7
21	22	23
24	25	26
27	28	29
30	31	32
-33	-34	-35
-36	-37	-38
-39	-40	6
-33	17	12
18	4	31
8	12	-7
41	42	43
44	45	46
47	48	49
50	51	52
-53	-54	-55
-56	-57	-58
-59	-60	31
25	-34	16
-10	1	31
14	17	27
61	62	63
64	65	66
67	68	69
70	71	72
-73	-74	-75
-76	77	-78
-79	-80	16
18	61	4
12	13	23
12	8	19
81	82	83
84	85	86
87	88	89
90	91	92
-93	-94	-95
-96	-97	-98
-99	-100	27
68	44	23
-54	62	9
18	50	15
%
0
